(set-logic QF_NRA)
; benchmark generated from python API
(set-info :status unknown)
(declare-fun v1y () Real)
(declare-fun oy () Real)
(declare-fun v1x () Real)
(declare-fun R2 () Real)
(declare-fun y1y () Real)
(declare-fun xy () Real)
(declare-fun y1x () Real)
(declare-fun xx () Real)
(declare-fun rho2 () Real)
(declare-fun y2y () Real)
(declare-fun y2x () Real)
(declare-fun y3y () Real)
(declare-fun y3x () Real)
(declare-fun y4y () Real)
(declare-fun y4x () Real)
(assert
 (let ((?x96 (* (- 1.0) v1x)))
 (let ((?x70 (* (- 1.0) R2)))
 (let ((?x394 (+ (+ (+ (+ (/ 1.0 4.0) (* oy oy)) (* v1x v1x)) (* v1y v1y)) ?x70)))
 (= (+ (+ ?x394 ?x96) (* (* (- 2.0) oy) v1y)) 0.0)))))
(assert
 (= (+ (+ (/ 1.0 4.0) (* oy oy)) (* (- 1.0) R2)) 0.0))
(assert
 (let ((?x287 (* (- 1.0) rho2)))
 (let ((?x363 (* y1y y1y)))
 (let ((?x433 (+ (+ (+ (+ (* xx xx) (* xy xy)) (* y1x y1x)) ?x363) ?x287)))
 (= (+ (+ ?x433 (* (* (- 2.0) xx) y1x)) (* (* (- 2.0) xy) y1y)) 0.0)))))
(assert
 (let ((?x287 (* (- 1.0) rho2)))
 (let ((?x342 (* y2y y2y)))
 (let ((?x408 (+ (+ (+ (+ (* xx xx) (* xy xy)) (* y2x y2x)) ?x342) ?x287)))
 (= (+ (+ ?x408 (* (* (- 2.0) xx) y2x)) (* (* (- 2.0) xy) y2y)) 0.0)))))
(assert
 (let ((?x287 (* (- 1.0) rho2)))
 (let ((?x384 (* y3y y3y)))
 (let ((?x314 (+ (+ (+ (+ (* xx xx) (* xy xy)) (* y3x y3x)) ?x384) ?x287)))
 (= (+ (+ ?x314 (* (* (- 2.0) xx) y3x)) (* (* (- 2.0) xy) y3y)) 0.0)))))
(assert
 (let ((?x287 (* (- 1.0) rho2)))
 (let ((?x143 (* y4y y4y)))
 (let ((?x118 (+ (+ (+ (+ (* xx xx) (* xy xy)) (* y4x y4x)) ?x143) ?x287)))
 (= (+ (+ ?x118 (* (* (- 2.0) xx) y4x)) (* (* (- 2.0) xy) y4y)) 0.0)))))
(assert
 (let ((?x13 (+ (+ (+ (+ (- (/ 1.0 4.0)) R2) xx) (* (- 1.0) (* oy oy))) (* (- 1.0) (* xx xx)))))
 (>= (+ (+ ?x13 (* (- 1.0) (* xy xy))) (* (* 2.0 oy) xy)) 0.0)))
(assert
 (let ((?x295 (+ (+ (+ (+ (- (/ 1.0 4.0)) R2) y1x) (* (- 1.0) (* oy oy))) (* (- 1.0) (* y1x y1x)))))
 (>= (+ (+ ?x295 (* (- 1.0) (* y1y y1y))) (* (* 2.0 oy) y1y)) 0.0)))
(assert
 (let ((?x411 (+ (+ (+ (+ (- (/ 1.0 4.0)) R2) y2x) (* (- 1.0) (* oy oy))) (* (- 1.0) (* y2x y2x)))))
 (>= (+ (+ ?x411 (* (- 1.0) (* y2y y2y))) (* (* 2.0 oy) y2y)) 0.0)))
(assert
 (let ((?x50 (+ (+ (+ (+ (- (/ 1.0 4.0)) R2) y3x) (* (- 1.0) (* oy oy))) (* (- 1.0) (* y3x y3x)))))
 (>= (+ (+ ?x50 (* (- 1.0) (* y3y y3y))) (* (* 2.0 oy) y3y)) 0.0)))
(assert
 (let ((?x211 (+ (+ (+ (+ (- (/ 1.0 4.0)) R2) y4x) (* (- 1.0) (* oy oy))) (* (- 1.0) (* y4x y4x)))))
 (>= (+ (+ ?x211 (* (- 1.0) (* y4y y4y))) (* (* 2.0 oy) y4y)) 0.0)))
(assert
 (>= (+ (+ (* v1x v1x) (* v1y v1y)) (* (- 1.0) v1x)) 0.0))
(assert
 (>= v1x 0.0))
(assert
 (>= (+ 1.0 (* (- 1.0) v1x)) 0.0))
(assert
 (> R2 0.0))
(assert
 (> rho2 0.0))
(assert
 (let ((?x198 (* (- 1.0) v1y)))
 (let ((?x192 (* ?x198 xy)))
 (> ?x192 0.0))))
(assert
 (let ((?x571 (+ (+ (* v1y v1y) (* (* (- 1.0) v1y) xy)) (* (* (- 1.0) xx) (* v1y v1y)))))
 (> (+ ?x571 (* (* v1x v1y) xy)) 0.0)))
(assert
 (> (+ (* xx (* v1y v1y)) (* (* (* (- 1.0) v1x) v1y) xy)) 0.0))
(assert
 (let ((?x198 (* (- 1.0) v1y)))
 (let ((?x121 (* ?x198 y1y)))
 (> ?x121 0.0))))
(assert
 (let ((?x147 (+ (+ (* v1y v1y) (* (* (- 1.0) v1y) y1y)) (* (* (- 1.0) y1x) (* v1y v1y)))))
 (> (+ ?x147 (* (* v1x v1y) y1y)) 0.0)))
(assert
 (> (+ (* y1x (* v1y v1y)) (* (* (* (- 1.0) v1x) v1y) y1y)) 0.0))
(assert
 (let ((?x198 (* (- 1.0) v1y)))
 (let ((?x779 (* ?x198 y2y)))
 (> ?x779 0.0))))
(assert
 (let ((?x395 (+ (+ (* v1y v1y) (* (* (- 1.0) v1y) y2y)) (* (* (- 1.0) y2x) (* v1y v1y)))))
 (> (+ ?x395 (* (* v1x v1y) y2y)) 0.0)))
(assert
 (> (+ (* y2x (* v1y v1y)) (* (* (* (- 1.0) v1x) v1y) y2y)) 0.0))
(assert
 (let ((?x198 (* (- 1.0) v1y)))
 (let ((?x88 (* ?x198 y3y)))
 (> ?x88 0.0))))
(assert
 (let ((?x383 (+ (+ (* v1y v1y) (* (* (- 1.0) v1y) y3y)) (* (* (- 1.0) y3x) (* v1y v1y)))))
 (> (+ ?x383 (* (* v1x v1y) y3y)) 0.0)))
(assert
 (> (+ (* y3x (* v1y v1y)) (* (* (* (- 1.0) v1x) v1y) y3y)) 0.0))
(assert
 (let ((?x198 (* (- 1.0) v1y)))
 (let ((?x237 (* ?x198 y4y)))
 (> ?x237 0.0))))
(assert
 (let ((?x171 (+ (+ (* v1y v1y) (* (* (- 1.0) v1y) y4y)) (* (* (- 1.0) y4x) (* v1y v1y)))))
 (> (+ ?x171 (* (* v1x v1y) y4y)) 0.0)))
(assert
 (> (+ (* y4x (* v1y v1y)) (* (* (* (- 1.0) v1x) v1y) y4y)) 0.0))
(assert
 (> (+ (* y1x y2y) (* (* (- 1.0) y1y) y2x)) 0.0))
(assert
 (> (+ (* xy y1x) (* (* (- 1.0) xx) y1y)) 0.0))
(assert
 (> (+ (* y1x y3y) (* (* (- 1.0) y1y) y3x)) 0.0))
(assert
 (> (+ (* y1x y4y) (* (* (- 1.0) y1y) y4x)) 0.0))
(assert
 (let ((?x280 (* (- 1.0) y1y)))
 (> ?x280 0.0)))
(assert
 (> (+ (* v1y y1x) (* (* (- 1.0) v1x) y1y)) 0.0))
(assert
 (> (+ (* xy y2x) (* (* (- 1.0) xx) y2y)) 0.0))
(assert
 (> (+ (* y2x y3y) (* (* (- 1.0) y2y) y3x)) 0.0))
(assert
 (> (+ (* y2x y4y) (* (* (- 1.0) y2y) y4x)) 0.0))
(assert
 (let ((?x393 (* (- 1.0) y2y)))
 (> ?x393 0.0)))
(assert
 (> (+ (* v1y y2x) (* (* (- 1.0) v1x) y2y)) 0.0))
(assert
 (> (+ (* xx y3y) (* (* (- 1.0) xy) y3x)) 0.0))
(assert
 (> (+ (* xx y4y) (* (* (- 1.0) xy) y4x)) 0.0))
(assert
 (let ((?x327 (* (- 1.0) xy)))
 (> ?x327 0.0)))
(assert
 (> (+ (* v1y xx) (* (* (- 1.0) v1x) xy)) 0.0))
(assert
 (> (+ (* y3x y4y) (* (* (- 1.0) y3y) y4x)) 0.0))
(assert
 (let ((?x67 (* (- 1.0) y3y)))
 (> ?x67 0.0)))
(assert
 (> (+ (* v1y y3x) (* (* (- 1.0) v1x) y3y)) 0.0))
(assert
 (let ((?x313 (* (- 1.0) y4y)))
 (> ?x313 0.0)))
(assert
 (> (+ (* v1y y4x) (* (* (- 1.0) v1x) y4y)) 0.0))
(assert
 (> v1y 0.0))
(assert
 (let ((?x280 (* (- 1.0) y1y)))
 (let ((?x367 (* ?x280 y2x)))
 (let ((?x78 (* (- 1.0) xx)))
 (let ((?x56 (* ?x78 y2y)))
 (let ((?x484 (+ (+ (+ (+ (* xx y1y) (* xy y2x)) (* y1x y2y)) ?x56) (* (* (- 1.0) xy) y1x))))
 (> (+ ?x484 ?x367) 0.0)))))))
(assert
 (let ((?x393 (* (- 1.0) y2y)))
 (let ((?x236 (* ?x393 y3x)))
 (let ((?x280 (* (- 1.0) y1y)))
 (let ((?x367 (* ?x280 y2x)))
 (let ((?x12 (* (- 1.0) y1x)))
 (let ((?x57 (* ?x12 y3y)))
 (let ((?x315 (+ (+ (+ (+ (* y1x y2y) (* y1y y3x)) (* y2x y3y)) ?x57) ?x367)))
 (> (+ ?x315 ?x236) 0.0)))))))))
(assert
 (let ((?x393 (* (- 1.0) y2y)))
 (let ((?x480 (* ?x393 y4x)))
 (let ((?x280 (* (- 1.0) y1y)))
 (let ((?x367 (* ?x280 y2x)))
 (let ((?x12 (* (- 1.0) y1x)))
 (let ((?x430 (* ?x12 y4y)))
 (let ((?x257 (+ (+ (+ (+ (* y1x y2y) (* y1y y4x)) (* y2x y4y)) ?x430) ?x367)))
 (> (+ ?x257 ?x480) 0.0)))))))))
(assert
 (let ((?x280 (* (- 1.0) y1y)))
 (let ((?x367 (* ?x280 y2x)))
 (> (+ (+ (+ y1y (* (- 1.0) y2y)) (* y1x y2y)) ?x367) 0.0))))
(assert
 (let ((?x280 (* (- 1.0) y1y)))
 (let ((?x367 (* ?x280 y2x)))
 (let ((?x198 (* (- 1.0) v1y)))
 (let ((?x162 (* ?x198 y1x)))
 (let ((?x96 (* (- 1.0) v1x)))
 (let ((?x91 (* ?x96 y2y)))
 (let ((?x317 (+ (+ (+ (+ (* v1x y1y) (* v1y y2x)) (* y1x y2y)) ?x91) ?x162)))
 (> (+ ?x317 ?x367) 0.0)))))))))
(assert
 (let ((?x12 (* (- 1.0) y1x)))
 (let ((?x57 (* ?x12 y3y)))
 (let ((?x327 (* (- 1.0) xy)))
 (let ((?x421 (* ?x327 y3x)))
 (let ((?x78 (* (- 1.0) xx)))
 (let ((?x132 (* ?x78 y1y)))
 (let ((?x391 (+ (+ (+ (+ (* xx y3y) (* xy y1x)) (* y1y y3x)) ?x132) ?x421)))
 (> (+ ?x391 ?x57) 0.0)))))))))
(assert
 (let ((?x12 (* (- 1.0) y1x)))
 (let ((?x430 (* ?x12 y4y)))
 (let ((?x327 (* (- 1.0) xy)))
 (let ((?x357 (* ?x327 y4x)))
 (let ((?x78 (* (- 1.0) xx)))
 (let ((?x132 (* ?x78 y1y)))
 (let ((?x232 (+ (+ (+ (+ (* xx y4y) (* xy y1x)) (* y1y y4x)) ?x132) ?x357)))
 (> (+ ?x232 ?x430) 0.0)))))))))
(assert
 (let ((?x78 (* (- 1.0) xx)))
 (let ((?x132 (* ?x78 y1y)))
 (> (+ (+ (+ y1y (* (- 1.0) xy)) (* xy y1x)) ?x132) 0.0))))
(assert
 (let ((?x78 (* (- 1.0) xx)))
 (let ((?x132 (* ?x78 y1y)))
 (let ((?x198 (* (- 1.0) v1y)))
 (let ((?x162 (* ?x198 y1x)))
 (let ((?x96 (* (- 1.0) v1x)))
 (let ((?x306 (* ?x96 xy)))
 (let ((?x47 (+ (+ (+ (+ (* v1x y1y) (* v1y xx)) (* xy y1x)) ?x306) ?x162)))
 (> (+ ?x47 ?x132) 0.0)))))))))
(assert
 (let ((?x67 (* (- 1.0) y3y)))
 (let ((?x213 (* ?x67 y4x)))
 (let ((?x280 (* (- 1.0) y1y)))
 (let ((?x128 (* ?x280 y3x)))
 (let ((?x12 (* (- 1.0) y1x)))
 (let ((?x430 (* ?x12 y4y)))
 (let ((?x358 (+ (+ (+ (+ (* y1x y3y) (* y1y y4x)) (* y3x y4y)) ?x430) ?x128)))
 (> (+ ?x358 ?x213) 0.0)))))))))
(assert
 (let ((?x280 (* (- 1.0) y1y)))
 (let ((?x128 (* ?x280 y3x)))
 (> (+ (+ (+ y1y (* (- 1.0) y3y)) (* y1x y3y)) ?x128) 0.0))))
(assert
 (let ((?x280 (* (- 1.0) y1y)))
 (let ((?x128 (* ?x280 y3x)))
 (let ((?x198 (* (- 1.0) v1y)))
 (let ((?x162 (* ?x198 y1x)))
 (let ((?x96 (* (- 1.0) v1x)))
 (let ((?x30 (* ?x96 y3y)))
 (let ((?x134 (+ (+ (+ (+ (* v1x y1y) (* v1y y3x)) (* y1x y3y)) ?x30) ?x162)))
 (> (+ ?x134 ?x128) 0.0)))))))))
(assert
 (let ((?x280 (* (- 1.0) y1y)))
 (let ((?x167 (* ?x280 y4x)))
 (> (+ (+ (+ y1y (* (- 1.0) y4y)) (* y1x y4y)) ?x167) 0.0))))
(assert
 (let ((?x280 (* (- 1.0) y1y)))
 (let ((?x167 (* ?x280 y4x)))
 (let ((?x198 (* (- 1.0) v1y)))
 (let ((?x162 (* ?x198 y1x)))
 (let ((?x96 (* (- 1.0) v1x)))
 (let ((?x458 (* ?x96 y4y)))
 (let ((?x445 (+ (+ (+ (+ (* v1x y1y) (* v1y y4x)) (* y1x y4y)) ?x458) ?x162)))
 (> (+ ?x445 ?x167) 0.0)))))))))
(assert
 (let ((?x198 (* (- 1.0) v1y)))
 (let ((?x162 (* ?x198 y1x)))
 (> (+ (+ (+ v1y (* (- 1.0) y1y)) (* v1x y1y)) ?x162) 0.0))))
(assert
 (let ((?x327 (* (- 1.0) xy)))
 (let ((?x421 (* ?x327 y3x)))
 (let ((?x78 (* (- 1.0) xx)))
 (let ((?x56 (* ?x78 y2y)))
 (let ((?x23 (+ (+ (+ (+ (* xx y3y) (* xy y2x)) (* y2y y3x)) ?x56) ?x421)))
 (> (+ ?x23 (* (* (- 1.0) y2x) y3y)) 0.0)))))))
(assert
 (let ((?x329 (* (- 1.0) y2x)))
 (let ((?x355 (* ?x329 y4y)))
 (let ((?x327 (* (- 1.0) xy)))
 (let ((?x357 (* ?x327 y4x)))
 (let ((?x78 (* (- 1.0) xx)))
 (let ((?x56 (* ?x78 y2y)))
 (let ((?x273 (+ (+ (+ (+ (* xx y4y) (* xy y2x)) (* y2y y4x)) ?x56) ?x357)))
 (> (+ ?x273 ?x355) 0.0)))))))))
(assert
 (let ((?x78 (* (- 1.0) xx)))
 (let ((?x56 (* ?x78 y2y)))
 (> (+ (+ (+ y2y (* (- 1.0) xy)) (* xy y2x)) ?x56) 0.0))))
(assert
 (let ((?x78 (* (- 1.0) xx)))
 (let ((?x56 (* ?x78 y2y)))
 (let ((?x198 (* (- 1.0) v1y)))
 (let ((?x116 (* ?x198 y2x)))
 (let ((?x96 (* (- 1.0) v1x)))
 (let ((?x306 (* ?x96 xy)))
 (let ((?x15 (+ (+ (+ (+ (* v1x y2y) (* v1y xx)) (* xy y2x)) ?x306) ?x116)))
 (> (+ ?x15 ?x56) 0.0)))))))))
(assert
 (let ((?x67 (* (- 1.0) y3y)))
 (let ((?x213 (* ?x67 y4x)))
 (let ((?x393 (* (- 1.0) y2y)))
 (let ((?x236 (* ?x393 y3x)))
 (let ((?x329 (* (- 1.0) y2x)))
 (let ((?x355 (* ?x329 y4y)))
 (let ((?x117 (+ (+ (+ (+ (* y2x y3y) (* y2y y4x)) (* y3x y4y)) ?x355) ?x236)))
 (> (+ ?x117 ?x213) 0.0)))))))))
(assert
 (let ((?x393 (* (- 1.0) y2y)))
 (let ((?x236 (* ?x393 y3x)))
 (> (+ (+ (+ y2y (* (- 1.0) y3y)) (* y2x y3y)) ?x236) 0.0))))
(assert
 (let ((?x393 (* (- 1.0) y2y)))
 (let ((?x236 (* ?x393 y3x)))
 (let ((?x198 (* (- 1.0) v1y)))
 (let ((?x116 (* ?x198 y2x)))
 (let ((?x96 (* (- 1.0) v1x)))
 (let ((?x30 (* ?x96 y3y)))
 (let ((?x275 (+ (+ (+ (+ (* v1x y2y) (* v1y y3x)) (* y2x y3y)) ?x30) ?x116)))
 (> (+ ?x275 ?x236) 0.0)))))))))
(assert
 (let ((?x393 (* (- 1.0) y2y)))
 (let ((?x480 (* ?x393 y4x)))
 (> (+ (+ (+ y2y (* (- 1.0) y4y)) (* y2x y4y)) ?x480) 0.0))))
(assert
 (let ((?x393 (* (- 1.0) y2y)))
 (let ((?x480 (* ?x393 y4x)))
 (let ((?x198 (* (- 1.0) v1y)))
 (let ((?x116 (* ?x198 y2x)))
 (let ((?x96 (* (- 1.0) v1x)))
 (let ((?x458 (* ?x96 y4y)))
 (let ((?x323 (+ (+ (+ (+ (* v1x y2y) (* v1y y4x)) (* y2x y4y)) ?x458) ?x116)))
 (> (+ ?x323 ?x480) 0.0)))))))))
(assert
 (let ((?x198 (* (- 1.0) v1y)))
 (let ((?x116 (* ?x198 y2x)))
 (> (+ (+ (+ v1y (* (- 1.0) y2y)) (* v1x y2y)) ?x116) 0.0))))
(assert
 (let ((?x67 (* (- 1.0) y3y)))
 (let ((?x213 (* ?x67 y4x)))
 (let ((?x327 (* (- 1.0) xy)))
 (let ((?x421 (* ?x327 y3x)))
 (let ((?x68 (+ (+ (+ (* xx y3y) (* xy y4x)) (* y3x y4y)) (* (* (- 1.0) xx) y4y))))
 (> (+ (+ ?x68 ?x421) ?x213) 0.0)))))))
(assert
 (let ((?x327 (* (- 1.0) xy)))
 (let ((?x421 (* ?x327 y3x)))
 (> (+ (+ (+ xy (* (- 1.0) y3y)) (* xx y3y)) ?x421) 0.0))))
(assert
 (let ((?x327 (* (- 1.0) xy)))
 (let ((?x421 (* ?x327 y3x)))
 (let ((?x198 (* (- 1.0) v1y)))
 (let ((?x311 (* ?x198 xx)))
 (let ((?x96 (* (- 1.0) v1x)))
 (let ((?x30 (* ?x96 y3y)))
 (let ((?x486 (+ (+ (+ (+ (* v1x xy) (* v1y y3x)) (* xx y3y)) ?x30) ?x311)))
 (> (+ ?x486 ?x421) 0.0)))))))))
(assert
 (let ((?x327 (* (- 1.0) xy)))
 (let ((?x357 (* ?x327 y4x)))
 (> (+ (+ (+ xy (* (- 1.0) y4y)) (* xx y4y)) ?x357) 0.0))))
(assert
 (let ((?x327 (* (- 1.0) xy)))
 (let ((?x357 (* ?x327 y4x)))
 (let ((?x198 (* (- 1.0) v1y)))
 (let ((?x311 (* ?x198 xx)))
 (let ((?x96 (* (- 1.0) v1x)))
 (let ((?x458 (* ?x96 y4y)))
 (let ((?x253 (+ (+ (+ (+ (* v1x xy) (* v1y y4x)) (* xx y4y)) ?x458) ?x311)))
 (> (+ ?x253 ?x357) 0.0)))))))))
(assert
 (let ((?x198 (* (- 1.0) v1y)))
 (let ((?x311 (* ?x198 xx)))
 (> (+ (+ (+ v1y (* (- 1.0) xy)) (* v1x xy)) ?x311) 0.0))))
(assert
 (let ((?x67 (* (- 1.0) y3y)))
 (let ((?x213 (* ?x67 y4x)))
 (> (+ (+ (+ y3y (* (- 1.0) y4y)) (* y3x y4y)) ?x213) 0.0))))
(assert
 (let ((?x67 (* (- 1.0) y3y)))
 (let ((?x213 (* ?x67 y4x)))
 (let ((?x198 (* (- 1.0) v1y)))
 (let ((?x25 (* ?x198 y3x)))
 (let ((?x96 (* (- 1.0) v1x)))
 (let ((?x458 (* ?x96 y4y)))
 (let ((?x464 (+ (+ (+ (+ (* v1x y3y) (* v1y y4x)) (* y3x y4y)) ?x458) ?x25)))
 (> (+ ?x464 ?x213) 0.0)))))))))
(assert
 (let ((?x198 (* (- 1.0) v1y)))
 (let ((?x25 (* ?x198 y3x)))
 (> (+ (+ (+ v1y (* (- 1.0) y3y)) (* v1x y3y)) ?x25) 0.0))))
(assert
 (let ((?x322 (+ (+ (+ v1y (* (- 1.0) y4y)) (* v1x y4y)) (* (* (- 1.0) v1y) y4x))))
(> ?x322 0.0)))
(check-sat)
